PROBLEM NAME: eil51_n14
KNAPSACK DATA TYPE: uncorrelated, similar weights
DIMENSION: 14
NUMBER OF ITEMS: 13
CAPACITY OF KNAPSACK: 1182385
MIN SPEED: 0.1
MAX SPEED: 1
RENTING RATIO: 13.45
EDGE_WEIGHT_TYPE: CEIL_2D
NODE_COORD_SECTION	(INDEX, X, Y):
1	40	30
2	21	47
3	52	33
4	42	41
5	5	25
6	36	16
7	17	33
8	42	57
9	58	27
10	63	69
11	32	22
12	45	35
13	32	39
14	25	32
ITEMS SECTION	(INDEX, PROFIT, WEIGHT, ASSIGNED NODE NUMBER):
1	970	100066	6
2	930	100080	11
3	925	100033	14
4	906	100007	7
5	851	100090	5
6	811	100011	2
7	724	100026	13
8	700	100082	4
9	581	100042	8
10	532	100090	10
11	428	100017	9
12	416	100009	3
13	300	100071	12
